13258 864873
540289 253626
865852 13258
209109 587852
865088 13381.3
208745 589459
341392 531793
546759 251604
36317.4 812697
677890 203582
818688 36904.5
538070 263795
29001.3 844042
228558 573550
529400 307427
79162.1 724503
827277 33859.1
659643 218516
729512 130782
491017 344223
660082 218073
561483 243978
484274 371466
345759 491850
160667 661221
365748 445638
115826 715151
489782 353199
206919 627025
371377 435956
824689 36317.4
809016 65295.4
73089.4 770372
561022 246839
182589 635983
500016 341877
589839 227761
417213 404115
344787 516204
729694 128589
50946.1 782073
695387 142652
738949 91634.4
506829 338176
578769 233829
422211 391068
259052 567423
157347 664945
680578 175466
748218 89854.8
441009 384604
683119 164238
265555 565798
483139 380804
579350 231159
140683 713307
783676 66354.9
559179 251570
369814 441108
